\ Model construction_embed_copy
\ LP format - for model browsing. Use MPS format to capture full model detail.
Maximize
 
Subject To
 user_ub_grliv: x_Gr_Liv_Area <= 1200
 neigh_floor__Gr_Liv_Area: x_Gr_Liv_Area >= 1208
Bounds
 x_Gr_Liv_Area free
End
